(set-info :source |printed by MathSAT|)
(declare-fun B_7 () Int)
(declare-fun .y.29 () Int)
(declare-fun E_7 () Int)
(declare-fun .y.30 () Int)
(declare-fun A_7 () Int)
(declare-fun .y.31 () Int)
(declare-fun G_7 () (Array Int Int))
(declare-fun .y.32 () (Array Int Int))
(declare-fun D_7 () Int)
(declare-fun .y.33 () Int)
(declare-fun C_7 () Int)
(declare-fun .y.34 () Int)
(declare-fun F_7 () Int)
(declare-fun .y.35 () Int)
(declare-fun H_7 () (Array Int Int))
(declare-fun .y.36 () (Array Int Int))
(declare-fun .loc.28 () Bool)
(declare-fun .loc.37 () Bool)
(declare-fun G_2 () Int)
(declare-fun E_2 () Int)
(declare-fun H_2 () Int)
(declare-fun D_2 () (Array Int Int))
(define-fun .def_8 () Int (! B_7 :next |.y.29|))
(define-fun .def_10 () Int (! E_7 :next |.y.30|))
(define-fun .def_12 () Int (! A_7 :next |.y.31|))
(define-fun .def_14 () (Array Int Int) (! G_7 :next |.y.32|))
(define-fun .def_16 () Int (! D_7 :next |.y.33|))
(define-fun .def_18 () Int (! C_7 :next |.y.34|))
(define-fun .def_20 () Int (! F_7 :next |.y.35|))
(define-fun .def_22 () (Array Int Int) (! H_7 :next |.y.36|))
(define-fun .def_24 () Bool (! .loc.28 :next |.loc.37|))
(define-fun .def_131 () Int (! G_2 :next |.xiv.1|))
(define-fun .def_134 () Int (! E_2 :next |.xiv.2|))
(define-fun .def_144 () Int (! H_2 :next |.xiv.3|))
(define-fun .def_147 () (Array Int Int) (! D_2 :next |.xiv.4|))
(define-fun .def_185 () Int (+ .def_12 .def_134))
(define-fun .def_187 () Int (+ .def_185 (- 1)))
(define-fun .def_191 () Int (select .def_14 .def_187))
(define-fun .def_192 () Bool (= .def_8 .def_191))
(define-fun .def_193 () Bool (not .def_192))
(define-fun .def_129 () Bool (! (not .def_24) :invar-property 0))
(define-fun .def_194 () Bool (and .def_129 .def_193))
(define-fun .def_188 () Int (select .def_22 .def_187))
(define-fun .def_189 () Bool (= .def_16 .def_188))
(define-fun .def_190 () Bool (not .def_189))
(define-fun .def_195 () Bool (and .def_190 .def_194))
(define-fun .def_181 () Int (* (- 1) .def_134))
(define-fun .def_165 () Int (* (- 1) .def_12))
(define-fun .def_182 () Int (+ .def_165 .def_181))
(define-fun .def_183 () Int (+ .def_10 .def_182))
(define-fun .def_184 () Bool (= .def_183 (- 1)))
(define-fun .def_196 () Bool (and .def_184 .def_195))
(define-fun .def_172 () Int (* (- 1) .def_20))
(define-fun .def_175 () Int (+ .def_172 .def_134))
(define-fun .def_176 () Int (+ .def_12 .def_175))
(define-fun .def_177 () Bool (= .def_176 1))
(define-fun .def_197 () Bool (and .def_177 .def_196))
(define-fun .def_32 () Int (* (- 1) .def_18))
(define-fun .def_170 () Int (+ .def_12 .def_32))
(define-fun .def_171 () Bool (= .def_170 1))
(define-fun .def_198 () Bool (and .def_171 .def_197))
(define-fun .def_166 () Bool (<= 0 .def_12))
(define-fun .def_167 () Int (ite .def_166 .def_12 .def_165))
(define-fun .def_168 () Bool (<= .def_167 0))
(define-fun .def_169 () Bool (not .def_168))
(define-fun .def_199 () Bool (and .def_169 .def_198))
(define-fun .def_102 () Bool (= .def_14 .def_22))
(define-fun .def_200 () Bool (and .def_102 .def_199))
(define-fun .def_164 () Bool (= .def_8 .def_16))
(define-fun .def_201 () Bool (and .def_164 .def_200))
(define-fun .def_162 () Bool (= .def_12 0))
(define-fun .def_163 () Bool (not .def_162))
(define-fun .def_202 () Bool (and .def_163 .def_201))
(define-fun .def_154 () Int (* (- 1) .def_144))
(define-fun .def_155 () Bool (<= 0 .def_144))
(define-fun .def_156 () Int (ite .def_155 .def_144 .def_154))
(define-fun .def_157 () Bool (<= .def_156 0))
(define-fun .def_152 () Bool (= .def_144 0))
(define-fun .def_153 () Bool (not .def_152))
(define-fun .def_158 () Bool (and .def_153 .def_157))
(define-fun .def_145 () Int (+ .def_134 .def_144))
(define-fun .def_148 () Int (+ .def_145 (- 1)))
(define-fun .def_149 () Int (select .def_147 .def_148))
(define-fun .def_150 () Bool (= .def_131 .def_149))
(define-fun .def_151 () Bool (not .def_150))
(define-fun .def_159 () Bool (and .def_151 .def_158))
(define-fun .def_138 () Int (* (- 1) .def_131))
(define-fun .def_139 () Bool (<= 0 .def_131))
(define-fun .def_140 () Int (ite .def_139 .def_131 .def_138))
(define-fun .def_141 () Bool (<= .def_140 0))
(define-fun .def_135 () Int (+ .def_131 .def_134))
(define-fun .def_136 () Bool (= .def_135 1))
(define-fun .def_137 () Bool (not .def_136))
(define-fun .def_142 () Bool (and .def_137 .def_141))
(define-fun .def_132 () Bool (= .def_131 0))
(define-fun .def_133 () Bool (not .def_132))
(define-fun .def_143 () Bool (and .def_133 .def_142))
(define-fun .def_160 () Bool (or .def_143 .def_159))
(define-fun .def_161 () Bool (and .def_24 .def_160))
(define-fun .def_203 () Bool (! (or .def_161 .def_202) :init true))
(define-fun .def_64 () Bool (= .def_12 1))
(define-fun .def_68 () Bool (not .def_64))
(define-fun .def_61 () Int (+ .def_10 (- 1)))
(define-fun .def_62 () Int (select .def_14 .def_61))
(define-fun .def_63 () Bool (= .def_8 .def_62))
(define-fun .def_121 () Bool (and .def_63 .def_68))
(define-fun .def_116 () Bool (= .def_10 .def_20))
(define-fun .def_117 () Bool (not .def_116))
(define-fun .def_103 () Bool (not .def_102))
(define-fun .def_118 () Bool (or .def_103 .def_117))
(define-fun .def_33 () Bool (<= 0 .def_18))
(define-fun .def_34 () Int (ite .def_33 .def_18 .def_32))
(define-fun .def_35 () Bool (<= .def_34 0))
(define-fun .def_36 () Bool (not .def_35))
(define-fun .def_27 () Int (+ .def_20 (- 1)))
(define-fun .def_28 () Int (select .def_22 .def_27))
(define-fun .def_29 () Bool (= .def_16 .def_28))
(define-fun .def_115 () Bool (and .def_29 .def_36))
(define-fun .def_119 () Bool (and .def_115 .def_118))
(define-fun .def_111 () Bool (= .def_10 1))
(define-fun .def_112 () Bool (not .def_111))
(define-fun .def_113 () Bool (or .def_103 .def_112))
(define-fun .def_114 () Bool (and .def_35 .def_113))
(define-fun .def_120 () Bool (or .def_114 .def_119))
(define-fun .def_122 () Bool (and .def_120 .def_121))
(define-fun .def_107 () Bool (= .def_20 1))
(define-fun .def_108 () Bool (not .def_107))
(define-fun .def_109 () Bool (or .def_103 .def_108))
(define-fun .def_105 () Bool (and .def_29 .def_64))
(define-fun .def_106 () Bool (and .def_36 .def_105))
(define-fun .def_110 () Bool (and .def_106 .def_109))
(define-fun .def_123 () Bool (or .def_110 .def_122))
(define-fun .def_101 () Bool (and .def_35 .def_64))
(define-fun .def_104 () Bool (and .def_101 .def_103))
(define-fun .def_124 () Bool (or .def_104 .def_123))
(define-fun .def_125 () Bool (and .loc.37 .def_124))
(define-fun .def_89 () Bool (and .def_36 .def_68))
(define-fun .def_67 () Bool (not .def_63))
(define-fun .def_90 () Bool (and .def_67 .def_89))
(define-fun .def_30 () Bool (not .def_29))
(define-fun .def_91 () Bool (and .def_30 .def_90))
(define-fun .def_38 () Bool (not .loc.37))
(define-fun .def_92 () Bool (and .def_38 .def_91))
(define-fun .def_40 () Bool (= .def_22 .y.36))
(define-fun .def_93 () Bool (and .def_40 .def_92))
(define-fun .def_42 () Bool (= .def_16 .y.33))
(define-fun .def_94 () Bool (and .def_42 .def_93))
(define-fun .def_44 () Bool (= .def_14 .y.32))
(define-fun .def_95 () Bool (and .def_44 .def_94))
(define-fun .def_46 () Bool (= .def_8 .y.29))
(define-fun .def_96 () Bool (and .def_46 .def_95))
(define-fun .def_75 () Int (* (- 1) .y.31))
(define-fun .def_76 () Int (+ .def_12 .def_75))
(define-fun .def_77 () Bool (= .def_76 1))
(define-fun .def_97 () Bool (and .def_77 .def_96))
(define-fun .def_49 () Int (* (- 1) .y.34))
(define-fun .def_50 () Int (+ .def_18 .def_49))
(define-fun .def_51 () Bool (= .def_50 1))
(define-fun .def_98 () Bool (and .def_51 .def_97))
(define-fun .def_79 () Int (* (- 1) .y.30))
(define-fun .def_80 () Int (+ .def_10 .def_79))
(define-fun .def_81 () Bool (= .def_80 1))
(define-fun .def_99 () Bool (and .def_81 .def_98))
(define-fun .def_53 () Int (* (- 1) .y.35))
(define-fun .def_54 () Int (+ .def_20 .def_53))
(define-fun .def_55 () Bool (= .def_54 1))
(define-fun .def_100 () Bool (and .def_55 .def_99))
(define-fun .def_126 () Bool (or .def_100 .def_125))
(define-fun .def_87 () Bool (or .def_29 .def_35))
(define-fun .def_85 () Bool (= .def_18 .y.34))
(define-fun .def_83 () Bool (= .def_20 .y.35))
(define-fun .def_69 () Bool (and .def_67 .def_68))
(define-fun .def_70 () Bool (and .def_38 .def_69))
(define-fun .def_71 () Bool (and .def_40 .def_70))
(define-fun .def_72 () Bool (and .def_42 .def_71))
(define-fun .def_73 () Bool (and .def_44 .def_72))
(define-fun .def_74 () Bool (and .def_46 .def_73))
(define-fun .def_78 () Bool (and .def_74 .def_77))
(define-fun .def_82 () Bool (and .def_78 .def_81))
(define-fun .def_84 () Bool (and .def_82 .def_83))
(define-fun .def_86 () Bool (and .def_84 .def_85))
(define-fun .def_88 () Bool (and .def_86 .def_87))
(define-fun .def_127 () Bool (or .def_88 .def_126))
(define-fun .def_65 () Bool (or .def_63 .def_64))
(define-fun .def_59 () Bool (= .def_10 .y.30))
(define-fun .def_57 () Bool (= .def_12 .y.31))
(define-fun .def_37 () Bool (and .def_30 .def_36))
(define-fun .def_39 () Bool (and .def_37 .def_38))
(define-fun .def_41 () Bool (and .def_39 .def_40))
(define-fun .def_43 () Bool (and .def_41 .def_42))
(define-fun .def_45 () Bool (and .def_43 .def_44))
(define-fun .def_47 () Bool (and .def_45 .def_46))
(define-fun .def_52 () Bool (and .def_47 .def_51))
(define-fun .def_56 () Bool (and .def_52 .def_55))
(define-fun .def_58 () Bool (and .def_56 .def_57))
(define-fun .def_60 () Bool (and .def_58 .def_59))
(define-fun .def_66 () Bool (and .def_60 .def_65))
(define-fun .def_128 () Bool (or .def_66 .def_127))
(define-fun .def_130 () Bool (! (and .def_128 .def_129) :trans true))
(assert true)
